x08m05e0t1tp5
2979
3213
3213
3213
3213
3213
3283
3310
3310
3310
3310
3310
3310
3310
3310
3310
3310
3310
3310
3310
3310
3384
3384
3384
3384
3384
3384
3384
3384
3384
3384
3384
3384
3384
3384
3384
3384
3384
3384
3384
3384
3384
3384
3384
3384
3384
3384
3419
3419
3419
3419
3419
3419
3419
3419
3419
3419
3419
3419
3419
3419
3419
3419
3419
3419
3419
3419
3419
3437
3437
3437
3437
3437
3437
3437
3437
3437
3437
3437
3437
3437
3437
3437
3437
3437
3437
3437
3437
3437
3437
3437
3437
3437
3437
3437
3437
3437
3437
3437
3437
3437
3437
3437
3437
3437
3437
3437
3437
3437
3437
3437
3437
3437
3437
3437
3437
3437
3437
3437
3437
3437
3437
3437
3437
3437
3437
3437
3437
3437
3437
3437
3437
3437
3437
3437
3437
3437
3437
3437
3437
3437
3437
3437
3437
3437
3437
3437
3437
3437
3437
3437
3437
3437
3437
3437
3437
3437
3437
3437
3437
3437
3437
3437
3437
3437
3437
3437
3437
3437
3437
3437
3437
3437
3437
3437
3437
3437
3437
3437
3437
3437
3437
3437
3437
3437
3437
3437
3437
3437
3437
3437
3437
3437
3437
3437
3437
3437
3437
3437
3437
3437
3437
3437
3437
3437
3437
3437
3437
3437
3437
3437
3437
3437
3437
3437
3437
3437
3437
3437
3437
3437
3437
3437
3437
3437
3437
3437
3437
3437
3437
3437
3437
3437
3437
3437
3437
3450
3450
3450
3450
3450
3450
3450
3450
3450
3450
3450
3450
3450
3450
3450
3450
3450
3450
3450
3450
3450
3450
3450
3450
3450
3450
3450
3450
3450
3450
3450
3450
3450
3450
3450
3450
3450
3450
3450
3450
3450
3450
3450
3450
3450
3450
3450
3450
3450
3450
3450
3450
3450
3450
3450
3450
3450
3450
3450
3450
3450
3450
3450
3450
3450
3450
3450
3450
3450
3450
3450
3450
3450
3450
3450
3450
3450
3450
3450
3450
3450
3450
3450
3450
3450
3450
3450
3450
3450
3450
3450
3450
3450
3450
3450
3450
3450
3450
3450
3486
3486
3486
3486
3486
3486
3486
3486
3486
3486
3486
3486
3486
3486
3486
3486
3486
3486
3486
3486
3486
3486
3486
3486
3486
3486
3486
3486
3486
3486
3486
3486
3486
3486
3486
3486
3486
3486
3486
3486
3581
3581
3632
3632
3632
3632
3632
3632
3632
3632
3632
3632
3632
3632
3632
3632
3632
3632
3632
3632
3632
3632
3632
3632
3632
3632
3632
3632
3632
3632
3632
3632
3632
3632
3632
3632
3632
3632
3632
3632
3632
3632
3632
3632
3632
3632
3632
3632
3632
3632
3632
3632
3632
3632
3632
3632
3632
3632
3632
3632
3632
3632
3632
3632
3632
3632
3632
3632
3632
3632
3632
3632
3632
3632
3632
3632
3632
3632
3632
3632
3632
3632
3632
3632
3632
3632
3632
3632
3632
3632
3632
3632
3632
3632
3632
3632
3632
3632
3632
3632
3632
3632
3632
3632
3632
3632
3632
3632
3632
3632
3632
3632
3632
3632
3632
3632
3632
3632
3632
3632
3632
3632
3632
3632
3632
3632
3632
3632
3632
3632
3632
3632
3632
3632
3632
3632
3632
3632
3632
3632
3632
3632
3632
3632
3632
3632
3632
3632
3632
3632
3632
3632
3632
3632
3632
3632
3632
3632
3632
3632
3632
3632
3632
3632
3632
3632
3632
3632
3632
3632
3632
3632
3632
3632
3632
3632
3632
3632
3632
3632
3632
3632
3632
3632
3632
3632
3632
3632
3632
3632
3632
3632
3632
3632
3632
3632
3632
3632
3632
3632
3632
3632
3632
3632
3632
3632
3632
3632
3632
3632
3632
3632
3632
3632
3632
3632
3632
3632
3632
3632
3632
3632
3632
3632
3632
3632
3632
3632
3632
3632
3632
3632
3632
3632
3632
3632
3632
3632
3632
3632
3632
3632
3632
3632
3632
3632
3632
3632
3632
3632
3632
3632
3632
3632
3632
3632
3632
3632
3632
3632
3632
3632
3632
3632
3632
3632
3632
3632
3632
3632
3632
3632
3632
3632
3632
3632
3632
3632
3632
3632
3632
3632
3632
3632
3632
3632
3632
3632
3632
3632
3632
3632
3632
3632
3632
3632
3632
3632
3632
3632
3632
3632
3632
3632
3632
3632
3632
3632
3632
3632
3632
3632
3632
3632
3632
3632
3632
3632
3632
3632
3632
3632
3632
3632
3632
3632
3632
3632
3632
3632
3632
3632
3632
3632
3632
3632
3632
3632
3632
3632
3632
3632
3632
3632
3632
3632
3632
3632
3632
3632
3632
3632
3632
3632
3632
3632
3632
3632
3632
3632
3632
3632
3632
3632
3632
3632
3632
3632
3632
3632
3632
3632
3632
3632
3632
3632
3632
3632
3632
3632
3632
3632
3632
3632
3632
3632
3632
3632
3632
3632
3632
3632
3632
3632
3632
3632
3632
3632
3632
3632
3632
3632
3632
3632
3632
3632
3632
3632
3632
3632
3632
3632
3632
3632
3632
3632
3632
3632
3632
3632
3632
3632
3632
3632
3632
3632
3632
3632
3632
3632
3632
3632
3632
3632
3632
3632
3632
3632
3632
3632
3632
3632
3632
3632
3632
3632
3632
3632
3632
3632
3632
3632
3632
3632
3632
3632
3632
3632
3632
3632
3632
3632
3632
3632
3632
3632
3632
3632
3632
3632
3632
3632
3632
3632
3632
3632
3632
3632
3632
3632
3632
3632
3632
3632
3632
3632
3632
3632
3632
3632
3632
3632
3632
3632
3632
3632
3632
3632
3632
3632
3632
3632
3632
3632
3632
3632
3632
3632
3632
3632
3632
3632
3632
3632
3632
3632
3632
3632
3632
3632
3632
3632
3632
3632
3632
3632
3632
3632
3632
3632
3632
3632
3632
3632
3632
3632
3632
3632
3632
3632
3632
3632
3632
3632
3632
3632
3632
3632
3632
3632
3632
3632
3632
3632
3632
3632
3632
3632
3632
3632
3632
3632
3632
3632
3632
3632
3632
3632
3632
3632
3632
3632
3632
3632
3632
3632
3632
3632
3632
3632
3632
3632
3632
3632
3632
3632
3632
3632
3632
3632
3632
3632
3632
3632
3632
3632
3632
3632
3632
3632
3632
3632
3632
3632
3632
3632
3632
3632
3632
3632
3632
3632
3632
3632
3632
3632
3632
3632
3632
3632
3632
3632
3632
3632
3632
